(set-logic QF_UF)
(declare-fun A0 () Bool)
(declare-fun A1 () Bool)
(declare-fun A2 () Bool)
(declare-fun A4 () Bool)
(declare-fun A5 () Bool)
(declare-fun A6 () Bool)
(declare-fun A7 () Bool)
(declare-fun A9 () Bool)
(declare-fun A10 () Bool)
(declare-fun A11 () Bool)
(declare-fun A12 () Bool)
(declare-fun A13 () Bool)
(declare-fun A14 () Bool)
(declare-fun A15 () Bool)
(declare-fun A16 () Bool)
(declare-fun A17 () Bool)
(declare-fun A18 () Bool)
(declare-fun A19 () Bool)
(declare-fun A20 () Bool)
(declare-fun A21 () Bool)
(declare-fun A22 () Bool)
(declare-fun A23 () Bool)
(declare-fun A24 () Bool)
(assert (let ((.def_0 (not A21))) (let ((.def_1 (not A6))) (let ((.def_2 (and .def_1 .def_0))) (let ((.def_3 (not .def_2))) (let ((.def_4 (not A18))) (let ((.def_5 (not A5))) (let ((.def_6 (or .def_5 .def_4))) (let ((.def_7 (not .def_6))) (let ((.def_8 (and .def_7 .def_3))) (let ((.def_9 (or A16 A16))) (let ((.def_10 (not A9))) (let ((.def_11 (and .def_10 A11))) (let ((.def_12 (not .def_11))) (let ((.def_13 (or .def_12 .def_9))) (let ((.def_14 (not .def_13))) (let ((.def_15 (and .def_14 .def_8))) (let ((.def_16 (not A14))) (let ((.def_17 (or A20 .def_16))) (let ((.def_18 (not A22))) (let ((.def_19 (not A16))) (let ((.def_20 (or .def_19 .def_18))) (let ((.def_21 (= .def_20 .def_17))) (let ((.def_22 (not .def_21))) (let ((.def_23 (and .def_4 A9))) (let ((.def_24 (not A17))) (let ((.def_25 (and A18 .def_24))) (let ((.def_26 (or .def_25 .def_23))) (let ((.def_27 (not .def_26))) (let ((.def_28 (or .def_27 .def_22))) (let ((.def_29 (not .def_28))) (let ((.def_30 (or .def_29 .def_15))) (let ((.def_31 (not .def_30))) (let ((.def_32 (not A10))) (let ((.def_33 (or .def_32 A7))) (let ((.def_34 (not .def_33))) (let ((.def_35 (not A24))) (let ((.def_36 (not A2))) (let ((.def_37 (or .def_36 .def_35))) (let ((.def_38 (not .def_37))) (let ((.def_39 (= .def_38 .def_34))) (let ((.def_40 (or A1 .def_4))) (let ((.def_41 (not .def_40))) (let ((.def_42 (not A19))) (let ((.def_43 (and A9 .def_42))) (let ((.def_44 (not .def_43))) (let ((.def_45 (and .def_44 .def_41))) (let ((.def_46 (and .def_45 .def_39))) (let ((.def_47 (not .def_46))) (let ((.def_48 (not A4))) (let ((.def_49 (or .def_48 A11))) (let ((.def_50 (not .def_49))) (let ((.def_51 (and A24 A24))) (let ((.def_52 (not .def_51))) (let ((.def_53 (or .def_52 .def_50))) (let ((.def_54 (not A20))) (let ((.def_55 (or .def_36 .def_54))) (let ((.def_56 (not A13))) (let ((.def_57 (or .def_56 A23))) (let ((.def_58 (not .def_57))) (let ((.def_59 (or .def_58 .def_55))) (let ((.def_60 (and .def_59 .def_53))) (let ((.def_61 (not .def_60))) (let ((.def_62 (or .def_61 .def_47))) (let ((.def_63 (not .def_62))) (let ((.def_64 (or .def_63 .def_31))) (let ((.def_65 (and A13 .def_48))) (let ((.def_66 (and .def_24 A14))) (let ((.def_67 (not .def_66))) (let ((.def_68 (or .def_67 .def_65))) (let ((.def_69 (not .def_68))) (let ((.def_70 (and .def_4 .def_48))) (let ((.def_71 (not .def_70))) (let ((.def_72 (= .def_71 .def_3))) (let ((.def_73 (or .def_72 .def_69))) (let ((.def_74 (not A0))) (let ((.def_75 (or A12 .def_74))) (let ((.def_76 (and A7 .def_18))) (let ((.def_77 (not .def_76))) (let ((.def_78 (or .def_77 .def_75))) (let ((.def_79 (not .def_78))) (let ((.def_80 (or .def_42 A16))) (let ((.def_81 (and A6 A5))) (let ((.def_82 (or .def_81 .def_80))) (let ((.def_83 (or .def_82 .def_79))) (let ((.def_84 (not .def_83))) (let ((.def_85 (and .def_84 .def_73))) (let ((.def_86 (not .def_85))) (let ((.def_87 (not A7))) (let ((.def_88 (and A5 .def_87))) (let ((.def_89 (not A1))) (let ((.def_90 (and A21 .def_89))) (let ((.def_91 (or .def_90 .def_88))) (let ((.def_92 (not .def_91))) (let ((.def_93 (or .def_0 A15))) (let ((.def_94 (or A12 A9))) (let ((.def_95 (not .def_94))) (let ((.def_96 (and .def_95 .def_93))) (let ((.def_97 (not .def_96))) (let ((.def_98 (and .def_97 .def_92))) (let ((.def_99 (not A23))) (let ((.def_100 (and A9 .def_99))) (let ((.def_101 (not A15))) (let ((.def_102 (and .def_101 A7))) (let ((.def_103 (and .def_102 .def_100))) (let ((.def_104 (not .def_103))) (let ((.def_105 (or A7 .def_87))) (let ((.def_106 (not .def_105))) (let ((.def_107 (not A12))) (let ((.def_108 (and .def_99 .def_107))) (let ((.def_109 (and .def_108 .def_106))) (let ((.def_110 (or .def_109 .def_104))) (let ((.def_111 (not .def_110))) (let ((.def_112 (or .def_111 .def_98))) (let ((.def_113 (and .def_112 .def_86))) (let ((.def_114 (not .def_113))) (let ((.def_115 (or .def_114 .def_64))) (let ((.def_116 (not .def_115))) .def_116))))))))))))))))))))))))))))))))))))))))))))))))))))))))))))))))))))))))))))))))))))))))))))))))))))))))))))))))))))))
(check-sat)
